20
587 233 220
70 63 50
100 53 34
93 78 45
100 55 48
98 73 50
69 45 43
43 42 36
104 92 63
93 36 26
50 45 41
119 67 50
82 49 30
80 55 31
105 73 37
76 76 42
102 96 22
120 99 36
89 70 58
60 54 46
120 38 35
thpack7_62